Iteraciones:   283 

Costo         Vehículos     Tiempo [seg]
 946,616       10            5,361 
 946,616       10            9,753 
 939,804       10            12,567 
 927,396       10            13,286 
 917,317       10            14,083 
 917,317       10            14,646 
 917,317       10            15,381 
 914,93        10            16,022 
 914,93        10            16,631 
 914,93        10            17,132 
 914,93        10            17,679 
 914,93        10            18,21 
 914,93        10            18,695 
 914,93        10            19,211 
 904,742       10            19,726 
 904,742       10            20,321 
 904,742       10            20,883 
 897,078       10            21,462 
 897,078       10            21,946 
 897,078       10            22,54 
 897,078       10            23,119 
 886,026       10            23,666 
 886,026       10            24,135 
 886,026       10            24,682 
 886,026       10            25,26 
 886,026       10            25,729 
 886,026       10            26,214 
 886,026       10            26,698 
 886,026       10            27,214 
 886,026       10            27,839 
 886,026       10            28,293 
 886,026       10            28,762 
 886,026       10            29,387 
 886,026       10            29,84 
 886,026       10            30,309 
 886,026       10            30,81 
 886,026       10            31,31 
 886,026       10            31,826 
 886,026       10            32,295 
 886,026       10            32,779 
 886,026       10            33,311 
 886,026       10            34,092 
 886,026       10            34,546 
 886,026       10            35,03 
 886,026       10            35,499 
 886,026       10            36,015 
 886,026       10            36,734 
 886,026       10            37,281 
 886,026       10            37,891 
 886,026       10            38,344 
 886,026       10            38,782 
 886,026       10            39,251 
 886,026       10            39,751 
 886,026       10            40,282 
 886,026       10            40,751 
 886,026       10            41,314 
 886,026       10            41,799 
 886,026       10            42,252 
 886,026       10            42,752 
 886,026       10            43,237 
 886,026       10            43,706 
 886,026       10            44,222 
 886,026       10            44,675 
 886,026       10            45,144 
 886,026       10            45,613 
 886,026       10            46,098 
 886,026       10            46,582 
 886,026       10            47,067 
 886,026       10            47,52 
 886,026       10            48,145 
 886,026       10            48,661 
 886,026       10            49,13 
 886,026       10            49,646 
 886,026       10            50,099 
 886,026       10            50,662 
 886,026       10            51,225 
 886,026       10            51,772 
 886,026       10            52,241 
 886,026       10            53,007 
 886,026       10            53,46 
 886,026       10            54,023 
 886,026       10            54,476 
 886,026       10            54,945 
 886,026       10            55,414 
 886,026       10            55,883 
 886,026       10            56,383 
 886,026       10            56,837 
 886,026       10            57,352 
 886,026       10            57,806 
 886,026       10            58,353 
 886,026       10            58,853 
 886,026       10            59,463 
 886,026       10            59,932 
 886,026       10            60,401 
 886,026       10            60,995 
 886,026       10            61,636 
 886,026       10            62,105 
 886,026       10            62,558 
 886,026       10            63,011 
 886,026       10            63,48 
 886,026       10            64,043 
 886,026       10            64,496 
 886,026       10            65,012 
 886,026       10            65,481 
 886,026       10            66,106 
 886,026       10            66,607 
 886,026       10            67,091 
 885,066       10            67,654 
 885,066       10            68,123 
 885,066       10            68,623 
 877,964       10            69,155 
 877,964       10            69,655 
 877,964       10            70,124 
 877,964       10            70,686 
 877,964       10            71,218 
 877,964       10            71,671 
 877,964       10            72,156 
 877,964       10            72,687 
 877,964       10            73,375 
 877,964       10            73,907 
 877,964       10            74,563 
 877,964       10            75,251 
 877,964       10            75,751 
 877,964       10            76,236 
 877,964       10            76,783 
 877,964       10            77,518 
 877,964       10            78,221 
 877,964       10            78,909 
 877,964       10            79,612 
 877,964       10            80,363 
 877,964       10            81,191 
 872,815       10            81,848 
 872,815       10            82,614 
 872,815       10            83,348 
 872,815       10            83,88 
 872,815       10            84,364 
 872,815       10            84,865 
 872,815       10            85,427 
 872,815       10            86,021 
 872,815       10            86,522 
 872,815       10            87,006 
 872,815       10            87,616 
 872,815       10            88,21 
 872,815       10            88,819 
 872,815       10            89,335 
 872,815       10            89,882 
 872,815       10            90,43 
 872,815       10            91,196 
 872,815       10            91,727 
 872,815       10            92,29 
 872,815       10            92,853 
 872,815       10            93,415 
 872,815       10            93,962 
 872,815       10            94,588 
 872,815       10            95,182 
 872,815       10            95,776 
 872,815       10            96,417 
 872,815       10            96,964 
 872,815       10            97,589 
 872,815       10            98,136 
 872,815       10            98,761 
 872,815       10            99,449 
 872,815       10            100,043 
 872,815       10            100,684 
 872,815       10            101,278 
 872,815       10            101,856 
 872,815       10            102,372 
 872,815       10            102,888 
 872,815       10            103,388 
 872,815       10            103,857 
 872,815       10            104,592 
 872,815       10            105,077 
 872,815       10            105,608 
 872,815       10            106,171 
 872,815       10            106,655 
 872,815       10            107,203 
 872,815       10            107,703 
 872,815       10            108,234 
 872,815       10            108,797 
 872,815       10            109,391 
 872,815       10            110,063 
 872,815       10            110,579 
 871,181       10            111,126 
 871,181       10            111,626 
 871,181       10            112,158 
 871,181       10            112,799 
 871,181       10            113,518 
 871,181       10            114,112 
 871,181       10            114,596 
 871,181       10            115,316 
 871,181       10            115,816 
 871,181       10            116,3 
 871,181       10            116,832 
 871,181       10            117,379 
 871,181       10            117,832 
 871,181       10            118,301 
 871,181       10            118,755 
 871,181       10            119,239 
 871,181       10            119,724 
 871,181       10            120,193 
 871,181       10            120,693 
 871,181       10            121,178 
 871,181       10            121,678 
 871,181       10            122,131 
 871,181       10            122,616 
 871,181       10            123,085 
 871,181       10            123,647 
 871,181       10            124,132 
 871,181       10            124,632 
 871,181       10            125,101 
 871,181       10            125,617 
 871,181       10            126,102 
 871,181       10            126,649 
 871,181       10            127,133 
 871,181       10            127,618 
 871,181       10            128,087 
 871,181       10            128,571 
 871,181       10            129,056 
 871,181       10            129,587 
 871,181       10            130,181 
 871,181       10            130,65 
 871,181       10            131,166 
 871,181       10            131,651 
 871,181       10            132,12 
 871,181       10            132,651 
 871,181       10            133,12 
 871,181       10            133,605 
 871,181       10            134,074 
 871,181       10            134,59 
 871,181       10            135,074 
 871,181       10            135,606 
 871,181       10            136,106 
 871,181       10            136,684 
 871,181       10            137,2 
 871,181       10            137,7 
 871,181       10            138,201 
 871,181       10            138,763 
 871,181       10            139,264 
 871,181       10            139,764 
 871,181       10            140,295 
 871,181       10            141,03 
 871,181       10            141,608 
 871,181       10            142,14 
 871,181       10            142,656 
 871,181       10            143,172 
 871,181       10            143,656 
 871,181       10            144,141 
 871,181       10            144,672 
 871,181       10            145,172 
 871,181       10            145,767 
 871,181       10            146,345 
 871,181       10            146,845 
 871,181       10            147,361 
 871,181       10            147,861 
 871,181       10            148,408 
 871,181       10            148,924 
 871,181       10            149,518 
 871,181       10            150,003 
 871,181       10            150,487 
 871,181       10            150,956 
 871,181       10            151,441 
 871,181       10            151,957 
 871,181       10            152,519 
 871,181       10            153,02 
 871,181       10            153,582 
 871,181       10            154,223 
 871,181       10            154,724 
 871,181       10            155,255 
 871,181       10            155,943 
 871,181       10            156,459 
 871,181       10            156,959 
 871,181       10            157,428 
 871,181       10            157,881 
 871,181       10            158,35 
 871,181       10            158,913 
 871,181       10            159,366 
 871,181       10            159,96 
 871,181       10            160,46 
 871,181       10            161,602 
 871,181       10            162,352 
 871,181       10            163,118 
 871,181       10            163,915 
 871,181       10            164,728 
